benchmarks/bfuzz0/2613022217105979877971913461376713698.smt2
(set-logic QF_FP)
(declare-const x0 (_ FloatingPoint 8 24))
(declare-const x1 (_ FloatingPoint 8 24))
(declare-const x2 (_ FloatingPoint 8 24))
(declare-const x3 (_ FloatingPoint 8 24))
(declare-const x4 (_ FloatingPoint 8 24))
(declare-const x5 (_ FloatingPoint 8 24))
(declare-const x6 (_ FloatingPoint 8 24))
(declare-const x7 (_ FloatingPoint 8 24))
(declare-const x8 (_ FloatingPoint 8 24))
(declare-const x9 (_ FloatingPoint 8 24))
(declare-const x10 (_ FloatingPoint 8 24))
(declare-const x11 (_ FloatingPoint 8 24))
(declare-const x12 (_ FloatingPoint 8 24))
(declare-const x13 (_ FloatingPoint 8 24))
(declare-const x14 (_ FloatingPoint 8 24))
(declare-const x15 (_ FloatingPoint 8 24))
(declare-const x16 (_ FloatingPoint 8 24))
(assert (fp.leq (fp.add RNE (fp.div RNE x16 x1) (fp.neg x6)) (fp.mul RNE (fp.neg x1) (fp.mul RNE x1 x9))))
(assert (fp.geq (fp.neg (fp.neg x16)) (fp.div RNE (fp.div RNE x6 x7) (fp.sub RNE x13 x11))))
(assert (fp.geq (fp.add RNE (fp.neg x10) (fp.neg x4)) (fp.add RNE (fp.add RNE x16 x14) (fp.add RNE x11 x8))))
(assert (fp.lt (fp.div RNE (fp.sub RNE x1 x13) (fp.mul RNE x0 x10)) (fp.sub RNE (fp.mul RNE x2 x12) (fp.neg x5))))
(assert (fp.geq (fp.neg (fp.sub RNE x3 x12)) (fp.neg (fp.neg x4))))
(assert (fp.geq (fp.add RNE (fp.neg x0) (fp.mul RNE x10 x14)) (fp.neg (fp.div RNE x11 x4))))
(assert (fp.eq (fp.neg (fp.add RNE x15 x1)) (fp.neg (fp.neg x6))))
(assert (fp.lt (fp.add RNE (fp.add RNE x7 x11) (fp.mul RNE x11 x12)) (fp.mul RNE (fp.neg x3) (fp.add RNE x13 x16))))
(assert (fp.gt (fp.mul RNE (fp.sub RNE x13 x12) (fp.neg x5)) (fp.div RNE (fp.neg x5) (fp.div RNE x9 x0))))
(assert (fp.eq (fp.mul RNE (fp.neg x15) (fp.mul RNE x14 x13)) (fp.add RNE (fp.div RNE x3 x4) (fp.add RNE x15 x12))))
(check-sat)
