db/data/2613022217105979877971913461376713698.z3.out
sat
-------------------
870.413786791
